23
19
19 20
0 6 22 5 15 19 3
11 1 7 9 0 2 18 8 16 19 4 15 20 17 10 6 22 3 13 14 21 12
20 19 1 21
13 2 14 12 22 6 15 11 8 18 9 16 1
2 22 15 9 1 11 17 20
1 5 7 22
4 21 20 9 14 17
22 2 5 16 12 3 11 15 10 4 18
4 14 19 12 8 10 3 2 13 22 9 18 16 0 11 6 20 1 17 15 21
13 11 20 14 12 18 3
14 7 22 1 19 9 8 12 18 10 16 4 21 20 13 5 0 6
3 18 9 11 0 21 20 1 7 15 17 19 6 22 13 10
1 19 13 5 2 22 7 8 4 18
15 6 13 19 10 12 2 4 0 22 5 20 21 3 18 9 1 17 7 14 11 8 16
14 12 9 5 13 3 11 2 7 0 6 18 16 15 4 1
16 3 21 17 2 11 12
19 9 5 15 20 6 8
4 13 14 8 0 22 5 20 2 19
